10
20
687751
0
0
63 33 75 58 57 49 47 37 66 40 42 41 50 37 36 45 72 55 54 42
1
0
59 34 78 52 57 49 51 37 64 51 41 44 48 39 41 47 74 56 51 41
2
0
62 30 74 52 55 54 51 35 63 50 39 45 48 38 41 42 78 54 48 43
3
0
61 31 80 56 52 47 47 39 66 40 39 43 48 37 41 44 73 55 55 42
4
0
62 31 76 55 53 54 47 37 62 46 42 42 49 38 39 44 74 59 50 40
5
0
64 27 76 57 54 47 48 36 69 46 40 43 50 39 40 46 76 57 48 39
6
0
59 33 76 59 52 52 48 38 62 43 42 46 51 37 38 44 72 57 50 41
7
0
58 31 80 56 53 48 49 36 64 43 40 46 50 40 40 45 71 54 50 41
8
0
59 34 81 55 56 52 49 37 67 47 39 45 50 36 38 49 73 57 55 42
9
0
60 28 74 56 50 48 49 35 62 44 41 44 50 39 40 48 71 58 53 42
